Second Year - 2020-2021/First Semester/Algorithm Analysis/Homework 2/sat_in/task3/12.cnf
p cnf 27 207
1 2 3 4 5 6 7 8 9 0
10 11 12 13 14 15 16 17 18 0
19 20 21 22 23 24 25 26 27 0
-1 -10 0
-2 -11 0
-3 -12 0
-4 -13 0
-5 -14 0
-6 -15 0
-7 -16 0
-8 -17 0
-9 -18 0
-1 -19 0
-2 -20 0
-3 -21 0
-4 -22 0
-5 -23 0
-6 -24 0
-7 -25 0
-8 -26 0
-9 -27 0
-10 -19 0
-11 -20 0
-12 -21 0
-13 -22 0
-14 -23 0
-15 -24 0
-16 -25 0
-17 -26 0
-18 -27 0
-1 -11 0
-1 -13 0
-1 -14 0
-1 -15 0
-1 -16 0
-1 -18 0
-2 -10 0
-2 -13 0
-2 -14 0
-2 -15 0
-2 -16 0
-2 -17 0
-3 -10 0
-3 -11 0
-3 -13 0
-3 -16 0
-4 -10 0
-4 -11 0
-4 -12 0
-4 -16 0
-4 -18 0
-5 -10 0
-5 -11 0
-5 -12 0
-5 -13 0
-5 -15 0
-5 -17 0
-5 -18 0
-6 -10 0
-6 -11 0
-6 -12 0
-6 -13 0
-6 -14 0
-6 -16 0
-6 -18 0
-7 -10 0
-7 -11 0
-7 -12 0
-7 -13 0
-7 -14 0
-7 -15 0
-7 -17 0
-7 -18 0
-8 -10 0
-8 -11 0
-8 -12 0
-8 -13 0
-8 -14 0
-8 -15 0
-8 -16 0
-8 -18 0
-9 -10 0
-9 -11 0
-9 -12 0
-9 -13 0
-9 -14 0
-9 -15 0
-9 -16 0
-9 -17 0
-1 -20 0
-1 -22 0
-1 -23 0
-1 -24 0
-1 -25 0
-1 -27 0
-2 -19 0
-2 -22 0
-2 -23 0
-2 -24 0
-2 -25 0
-2 -26 0
-3 -19 0
-3 -20 0
-3 -22 0
-3 -25 0
-4 -19 0
-4 -20 0
-4 -21 0
-4 -25 0
-4 -27 0
-5 -19 0
-5 -20 0
-5 -21 0
-5 -22 0
-5 -24 0
-5 -26 0
-5 -27 0
-6 -19 0
-6 -20 0
-6 -21 0
-6 -22 0
-6 -23 0
-6 -25 0
-6 -27 0
-7 -19 0
-7 -20 0
-7 -21 0
-7 -22 0
-7 -23 0
-7 -24 0
-7 -26 0
-7 -27 0
-8 -19 0
-8 -20 0
-8 -21 0
-8 -22 0
-8 -23 0
-8 -24 0
-8 -25 0
-8 -27 0
-9 -19 0
-9 -20 0
-9 -21 0
-9 -22 0
-9 -23 0
-9 -24 0
-9 -25 0
-9 -26 0
-10 -20 0
-10 -22 0
-10 -23 0
-10 -24 0
-10 -25 0
-10 -27 0
-11 -19 0
-11 -22 0
-11 -23 0
-11 -24 0
-11 -25 0
-11 -26 0
-12 -19 0
-12 -20 0
-12 -22 0
-12 -25 0
-13 -19 0
-13 -20 0
-13 -21 0
-13 -25 0
-13 -27 0
-14 -19 0
-14 -20 0
-14 -21 0
-14 -22 0
-14 -24 0
-14 -26 0
-14 -27 0
-15 -19 0
-15 -20 0
-15 -21 0
-15 -22 0
-15 -23 0
-15 -25 0
-15 -27 0
-16 -19 0
-16 -20 0
-16 -21 0
-16 -22 0
-16 -23 0
-16 -24 0
-16 -26 0
-16 -27 0
-17 -19 0
-17 -20 0
-17 -21 0
-17 -22 0
-17 -23 0
-17 -24 0
-17 -25 0
-17 -27 0
-18 -19 0
-18 -20 0
-18 -21 0
-18 -22 0
-18 -23 0
-18 -24 0
-18 -25 0
-18 -26 0
