Second Year/First Semester/Algorithm Analysis/Homework 2/sat_in/bonus/12.wcnf
p wcnf 9 32 185
185 1 2 0
185 1 4 0
185 1 5 0
185 1 6 0
185 1 7 0
185 1 9 0
185 2 4 0
185 2 5 0
185 2 6 0
185 2 7 0
185 2 8 0
185 3 4 0
185 3 7 0
185 4 7 0
185 4 9 0
185 5 6 0
185 5 8 0
185 5 9 0
185 6 7 0
185 6 9 0
185 7 8 0
185 7 9 0
185 8 9 0
17 -1 0
18 -2 0
21 -3 0
21 -4 0
20 -5 0
21 -6 0
21 -7 0
22 -8 0
23 -9 0
